32      4       
17      18      14      13      
0       0       0       0       0       21      2       7       13      14      15      16      17      18      19      20      21      22      23      24      25      26      27      28      29      
 30      31      
8       3       0       0       3       1       3       
1       3       0       0       1       4       4       9       10      11      
5       3       0       1       0       1       5       
8       0       8       0       1       1       6       
1       0       1       4       0       1       8       
10      0       0       1       4       1       12      
6       1       0       3       0       1       32      
9       0       7       0       1       1       32      
8       0       0       1       2       1       32      
6       3       6       0       0       1       32      
9       17      0       7       0       1       32      
8       0       0       5       1       1       32      
8       0       1       0       9       1       32      
4       0       14      0       1       1       32      
3       0       0       6       6       1       32      
2       1       2       0       0       1       32      
3       0       0       1       5       1       32      
4       8       1       0       0       1       32      
9       8       1       0       0       1       32      
1       2       0       12      0       1       32      
4       0       0       3       3       1       32      
10      1       0       0       6       1       32      
10      0       0       5       5       1       32      
5       1       5       0       0       1       32      
2       0       6       1       0       1       32      
8       7       8       0       0       1       32      
6       4       0       1       0       1       32      
4       2       3       0       0       1       32      
3       0       4       0       1       1       32      
2       0       1       2       0       1       32      
0       0       0       0       0       0       
